66 70 85 145 29 17 126 19 183 21 3 144 185 139 5 134 61 23 26 173 132 98 89 10 190 176 58 56 171 48 141 110 142 113 161 13 114 90 120 31 91 4 35 84 30 62 100 33 11 191 103 179 154 153 92 6 38 53 34 127 194 129 115 197 155 143 8 67 107 49 40 7 102 109 180 130 169 138 74 170 99 64 168 25 54 167 83 181 152 46 0 146 174 117 133 75 131 95 93 156 94 69 123 42 22 44 148 192 87 187 55 63 125 104 18 60 195 32 71 51 72 166 39 76 88 150 27 45 108 37 68 165 16 128 175 106 157 116 158 50 162 24 189 149 160 86 178 41 59 15 79 163 122 177 36 164 184 136 124 172 2 81 118 140 47 147 43 137 182 188 78 80 121 12 1 52 9 82 101 20 111 196 77 186 193 14 65 198 57 73 28 112 151 135 105 159 199 96 119 97 

